114 300 13 21 41 26 4 25 58 28 5 57 10 94 2 92 23 36 89 15 89 92 53 47 34 53 33 57 70 21 62 56 86 74 76 26 51 32 2 60 59 7 16 20 100 17 63 74 5 51 88 93 95 92 91 28 44 75 85 66 95 98 21 81 23 48 58 73 31 60 32 90 18 48 61 69 16 24 94 20 26 81 64 72 24 55 100 68 81 36 33 76 85 5 8 7 4 65 79 35 76 62 76 45 9 36 13 25 11 6 96 37 38 60 8 62 